40
1 0 9
2 0 11
2 1 12
3 0 13
3 1 1
3 2 10
4 0 10
4 1 12
4 2 4
4 3 7
5 0 5
5 1 3
5 2 10
5 3 10
5 4 7
6 0 14
6 1 1
6 2 14
6 3 11
6 4 10
6 5 10
7 0 6
7 1 4
7 2 1
7 3 12
7 4 11
7 5 14
7 6 3
8 0 3
8 1 12
8 2 4
8 3 8
8 4 9
8 5 10
8 6 13
8 7 12
9 0 6
9 1 7
9 2 14
9 3 4
9 4 12
9 5 1
9 6 12
9 7 4
9 8 7
10 0 14
10 1 4
10 2 8
10 3 14
10 4 10
10 5 7
10 6 1
10 7 13
10 8 5
10 9 7
11 0 4
11 1 4
11 2 12
11 3 1
11 4 7
11 5 5
11 6 1
11 7 7
11 8 11
11 9 7
11 10 9
12 0 6
12 1 7
12 2 10
12 3 7
12 4 12
12 5 6
12 6 9
12 7 14
12 8 9
12 9 11
12 10 11
12 11 5
13 0 9
13 1 5
13 2 6
13 3 6
13 4 4
13 5 2
13 6 2
13 7 14
13 8 2
13 9 11
13 10 14
13 11 5
13 12 9
14 0 4
14 1 8
14 2 9
14 3 3
14 4 13
14 5 7
14 6 13
14 7 1
14 8 10
14 9 8
14 10 3
14 11 1
14 12 14
14 13 11
15 0 9
15 1 12
15 2 8
15 3 6
15 4 5
15 5 3
15 6 9
15 7 6
15 8 4
15 9 5
15 10 5
15 11 3
15 12 4
15 13 2
15 14 7
16 0 12
16 1 13
16 2 4
16 3 6
16 4 11
16 5 3
16 6 4
16 7 9
16 8 4
16 9 1
16 10 11
16 11 7
16 12 10
16 13 12
16 14 8
16 15 3
17 0 4
17 1 11
17 2 5
17 3 4
17 4 10
17 5 13
17 6 12
17 7 11
17 8 4
17 9 14
17 10 9
17 11 6
17 12 7
17 13 1
17 14 13
17 15 3
17 16 13
18 0 3
18 1 7
18 2 1
18 3 4
18 4 4
18 5 1
18 6 8
18 7 13
18 8 10
18 9 9
18 10 12
18 11 9
18 12 5
18 13 12
18 14 14
18 15 14
18 16 6
18 17 1
19 0 11
19 1 9
19 2 4
19 3 6
19 4 2
19 5 13
19 6 11
19 7 5
19 8 7
19 9 1
19 10 4
19 11 1
19 12 9
19 13 2
19 14 5
19 15 8
19 16 11
19 17 1
19 18 12
20 0 13
20 1 1
20 2 14
20 3 3
20 4 9
20 5 5
20 6 9
20 7 10
20 8 8
20 9 2
20 10 2
20 11 9
20 12 9
20 13 13
20 14 12
20 15 6
20 16 4
20 17 8
20 18 10
20 19 11
21 0 14
21 1 3
21 2 12
21 3 4
21 4 13
21 5 11
21 6 11
21 7 11
21 8 3
21 9 8
21 10 3
21 11 2
21 12 11
21 13 12
21 14 1
21 15 3
21 16 8
21 17 8
21 18 11
21 19 11
21 20 6
22 0 8
22 1 1
22 2 10
22 3 3
22 4 1
22 5 2
22 6 13
22 7 14
22 8 1
22 9 2
22 10 12
22 11 9
22 12 3
22 13 11
22 14 6
22 15 9
22 16 12
22 17 6
22 18 8
22 19 2
22 20 1
22 21 9
23 0 2
23 1 13
23 2 9
23 3 6
23 4 6
23 5 9
23 6 14
23 7 2
23 8 10
23 9 11
23 10 14
23 11 8
23 12 6
23 13 3
23 14 12
23 15 2
23 16 5
23 17 2
23 18 5
23 19 7
23 20 3
23 21 12
23 22 12
24 0 10
24 1 14
24 2 3
24 3 12
24 4 2
24 5 8
24 6 10
24 7 13
24 8 5
24 9 4
24 10 10
24 11 11
24 12 5
24 13 4
24 14 10
24 15 10
24 16 3
24 17 14
24 18 2
24 19 14
24 20 1
24 21 1
24 22 7
24 23 13
25 0 13
25 1 2
25 2 10
25 3 13
25 4 5
25 5 2
25 6 5
25 7 9
25 8 14
25 9 11
25 10 10
25 11 14
25 12 10
25 13 7
25 14 10
25 15 8
25 16 12
25 17 1
25 18 11
25 19 1
25 20 9
25 21 6
25 22 9
25 23 12
25 24 10
26 0 12
26 1 13
26 2 2
26 3 11
26 4 10
26 5 11
26 6 5
26 7 12
26 8 2
26 9 12
26 10 2
26 11 5
26 12 5
26 13 5
26 14 3
26 15 4
26 16 9
26 17 6
26 18 11
26 19 12
26 20 3
26 21 13
26 22 11
26 23 2
26 24 13
26 25 6
27 0 1
27 1 3
27 2 8
27 3 5
27 4 4
27 5 11
27 6 13
27 7 3
27 8 14
27 9 13
27 10 6
27 11 6
27 12 7
27 13 1
27 14 5
27 15 11
27 16 5
27 17 12
27 18 2
27 19 10
27 20 12
27 21 1
27 22 1
27 23 3
27 24 5
27 25 3
27 26 11
28 0 9
28 1 5
28 2 10
28 3 9
28 4 9
28 5 2
28 6 8
28 7 1
28 8 13
28 9 7
28 10 7
28 11 13
28 12 1
28 13 10
28 14 8
28 15 2
28 16 13
28 17 9
28 18 1
28 19 7
28 20 14
28 21 4
28 22 10
28 23 9
28 24 13
28 25 14
28 26 4
28 27 3
29 0 4
29 1 1
29 2 7
29 3 8
29 4 11
29 5 12
29 6 13
29 7 14
29 8 3
29 9 12
29 10 13
29 11 8
29 12 10
29 13 1
29 14 8
29 15 5
29 16 12
29 17 8
29 18 2
29 19 3
29 20 11
29 21 8
29 22 7
29 23 11
29 24 5
29 25 11
29 26 6
29 27 9
29 28 9
30 0 3
30 1 1
30 2 2
30 3 8
30 4 8
30 5 12
30 6 9
30 7 13
30 8 3
30 9 1
30 10 10
30 11 12
30 12 11
30 13 6
30 14 8
30 15 11
30 16 4
30 17 11
30 18 2
30 19 14
30 20 9
30 21 7
30 22 2
30 23 13
30 24 2
30 25 14
30 26 7
30 27 4
30 28 7
30 29 11
31 0 3
31 1 7
31 2 7
31 3 5
31 4 11
31 5 14
31 6 14
31 7 12
31 8 8
31 9 7
31 10 5
31 11 10
31 12 11
31 13 7
31 14 14
31 15 2
31 16 5
31 17 9
31 18 12
31 19 14
31 20 4
31 21 6
31 22 10
31 23 14
31 24 3
31 25 11
31 26 3
31 27 5
31 28 7
31 29 14
31 30 6
32 0 3
32 1 4
32 2 5
32 3 4
32 4 7
32 5 4
32 6 5
32 7 13
32 8 9
32 9 13
32 10 1
32 11 12
32 12 5
32 13 3
32 14 7
32 15 13
32 16 3
32 17 6
32 18 11
32 19 9
32 20 7
32 21 5
32 22 11
32 23 8
32 24 10
32 25 1
32 26 2
32 27 1
32 28 8
32 29 2
32 30 8
32 31 11
33 0 9
33 1 7
33 2 7
33 3 10
33 4 3
33 5 1
33 6 10
33 7 13
33 8 2
33 9 4
33 10 4
33 11 9
33 12 4
33 13 13
33 14 5
33 15 13
33 16 4
33 17 1
33 18 9
33 19 4
33 20 14
33 21 8
33 22 5
33 23 13
33 24 6
33 25 7
33 26 12
33 27 3
33 28 7
33 29 13
33 30 2
33 31 7
33 32 6
34 0 9
34 1 11
34 2 10
34 3 10
34 4 14
34 5 6
34 6 3
34 7 5
34 8 4
34 9 2
34 10 9
34 11 1
34 12 14
34 13 7
34 14 11
34 15 5
34 16 3
34 17 10
34 18 10
34 19 10
34 20 1
34 21 4
34 22 12
34 23 3
34 24 14
34 25 7
34 26 13
34 27 3
34 28 13
34 29 13
34 30 10
34 31 4
34 32 8
34 33 11
35 0 3
35 1 12
35 2 9
35 3 4
35 4 2
35 5 2
35 6 13
35 7 4
35 8 5
35 9 2
35 10 9
35 11 14
35 12 10
35 13 2
35 14 3
35 15 14
35 16 13
35 17 11
35 18 7
35 19 12
35 20 10
35 21 14
35 22 9
35 23 12
35 24 13
35 25 14
35 26 8
35 27 9
35 28 12
35 29 12
35 30 8
35 31 14
35 32 5
35 33 6
35 34 3
36 0 13
36 1 6
36 2 12
36 3 11
36 4 13
36 5 11
36 6 13
36 7 11
36 8 12
36 9 8
36 10 13
36 11 1
36 12 10
36 13 11
36 14 2
36 15 2
36 16 8
36 17 7
36 18 4
36 19 3
36 20 13
36 21 3
36 22 11
36 23 4
36 24 6
36 25 13
36 26 5
36 27 1
36 28 11
36 29 6
36 30 3
36 31 13
36 32 7
36 33 14
36 34 14
36 35 13
37 0 1
37 1 9
37 2 9
37 3 9
37 4 3
37 5 13
37 6 3
37 7 6
37 8 10
37 9 5
37 10 13
37 11 1
37 12 5
37 13 12
37 14 14
37 15 7
37 16 1
37 17 4
37 18 12
37 19 4
37 20 2
37 21 5
37 22 5
37 23 8
37 24 12
37 25 3
37 26 3
37 27 1
37 28 4
37 29 5
37 30 12
37 31 4
37 32 10
37 33 5
37 34 14
37 35 5
37 36 5
38 0 7
38 1 7
38 2 1
38 3 12
38 4 11
38 5 6
38 6 3
38 7 9
38 8 6
38 9 8
38 10 9
38 11 2
38 12 4
38 13 9
38 14 14
38 15 7
38 16 8
38 17 5
38 18 14
38 19 3
38 20 3
38 21 8
38 22 3
38 23 9
38 24 11
38 25 4
38 26 9
38 27 14
38 28 9
38 29 11
38 30 12
38 31 2
38 32 13
38 33 6
38 34 12
38 35 8
38 36 14
38 37 6
39 0 9
39 1 5
39 2 8
39 3 6
39 4 8
39 5 13
39 6 7
39 7 1
39 8 13
39 9 14
39 10 10
39 11 4
39 12 7
39 13 5
39 14 7
39 15 2
39 16 3
39 17 4
39 18 2
39 19 1
39 20 2
39 21 5
39 22 2
39 23 7
39 24 4
39 25 11
39 26 2
39 27 2
39 28 12
39 29 9
39 30 14
39 31 2
39 32 7
39 33 9
39 34 2
39 35 10
39 36 1
39 37 11
39 38 12
